<number of tasks>
50

<cycle time>
1000

<order strength>
0.6


<task times>
1 402
2 411
3 461
4 577
5 699
6 649
7 547
8 634
9 531
10 663
11 763
12 519
13 490
14 481
15 429
16 432
17 468
18 337
19 476
20 450
21 521
22 475
23 448
24 486
25 280
26 644
27 564
28 642
29 424
30 563
31 360
32 573
33 432
34 626
35 669
36 363
37 656
38 444
39 370
40 535
41 362
42 385
43 437
44 626
45 603
46 475
47 606
48 521
49 555
50 591

<precedence relations>
1,6
2,7
3,9
4,8
4,13
4,14
4,15
4,16
5,10
6,12
7,12
8,11
9,13
10,12
10,13
10,14
10,15
10,16
11,18
12,17
12,19
12,20
13,19
13,20
14,19
14,20
15,19
15,20
16,19
16,20
17,21
18,22
19,23
19,24
20,24
21,25
22,26
23,27
24,28
24,29
25,30
26,31
27,30
28,30
28,31
28,32
28,33
28,34
28,35
29,30
29,31
29,32
29,33
29,34
29,35
30,37
30,38
31,46
32,36
32,49
32,50
33,38
35,38
36,39
37,40
38,41
38,42
39,44
40,45
41,43
41,46
42,46
43,47
44,48
45,48
46,48
46,49
46,50

<end>
